c "106530.clq"
p edge 100 1344
e 1 17
e 1 18
e 1 20
e 1 21
e 1 22
e 1 24
e 1 25
e 1 26
e 1 29
e 1 30
e 1 31
e 1 32
e 1 33
e 1 35
e 1 36
e 1 38
e 1 39
e 1 40
e 1 42
e 1 45
e 1 46
e 1 52
e 1 54
e 1 55
e 1 56
e 1 61
e 1 62
e 1 64
e 1 67
e 1 68
e 1 69
e 1 75
e 1 76
e 1 83
e 1 90
e 1 91
e 1 97
e 1 98
e 2 17
e 2 18
e 2 19
e 2 20
e 2 22
e 2 23
e 2 24
e 2 27
e 2 30
e 2 32
e 2 40
e 2 43
e 2 44
e 2 87
e 2 92
e 2 93
e 3 17
e 3 18
e 3 19
e 3 20
e 3 22
e 3 23
e 3 24
e 3 25
e 3 26
e 3 31
e 3 37
e 3 41
e 3 43
e 3 44
e 3 45
e 3 47
e 3 51
e 3 60
e 3 63
e 3 64
e 3 65
e 3 68
e 3 69
e 3 71
e 3 74
e 3 81
e 3 82
e 3 83
e 3 84
e 3 85
e 3 88
e 3 89
e 3 90
e 3 93
e 3 96
e 4 17
e 4 18
e 4 19
e 4 20
e 4 21
e 4 22
e 4 23
e 4 25
e 4 27
e 4 28
e 4 29
e 4 35
e 4 36
e 4 47
e 4 56
e 4 61
e 4 63
e 4 78
e 4 81
e 4 93
e 4 97
e 5 17
e 5 19
e 5 21
e 5 22
e 5 24
e 5 25
e 5 26
e 5 27
e 5 28
e 5 35
e 5 38
e 5 43
e 5 44
e 5 47
e 5 55
e 5 60
e 5 62
e 5 65
e 5 66
e 5 71
e 5 74
e 5 76
e 5 77
e 5 81
e 5 92
e 5 95
e 6 17
e 6 18
e 6 19
e 6 20
e 6 21
e 6 22
e 6 24
e 6 25
e 6 27
e 6 28
e 6 30
e 6 31
e 6 42
e 6 48
e 6 50
e 6 52
e 6 53
e 6 56
e 6 64
e 6 73
e 6 76
e 6 86
e 6 92
e 6 97
e 6 100
e 7 17
e 7 18
e 7 19
e 7 20
e 7 21
e 7 22
e 7 23
e 7 24
e 7 28
e 7 30
e 7 35
e 7 38
e 7 39
e 7 45
e 7 52
e 7 54
e 7 57
e 7 64
e 7 67
e 7 70
e 7 74
e 7 75
e 7 84
e 7 88
e 8 17
e 8 18
e 8 19
e 8 20
e 8 21
e 8 23
e 8 25
e 8 30
e 8 31
e 8 32
e 8 33
e 8 40
e 8 43
e 8 49
e 8 50
e 8 58
e 8 71
e 8 74
e 8 77
e 8 84
e 8 100
e 9 17
e 9 18
e 9 19
e 9 20
e 9 21
e 9 22
e 9 23
e 9 24
e 9 26
e 9 27
e 9 29
e 9 32
e 9 35
e 9 37
e 9 39
e 9 40
e 9 41
e 9 42
e 9 45
e 9 47
e 9 49
e 9 56
e 9 60
e 9 62
e 9 69
e 9 72
e 9 85
e 9 86
e 9 92
e 9 97
e 10 17
e 10 18
e 10 19
e 10 20
e 10 22
e 10 23
e 10 26
e 10 29
e 10 30
e 10 34
e 10 37
e 10 42
e 10 48
e 10 55
e 10 58
e 10 59
e 10 61
e 10 69
e 10 83
e 10 85
e 10 86
e 10 90
e 10 91
e 10 98
e 11 17
e 11 18
e 11 19
e 11 23
e 11 24
e 11 25
e 11 26
e 11 28
e 11 29
e 11 31
e 11 32
e 11 33
e 11 34
e 11 36
e 11 37
e 11 40
e 11 43
e 11 46
e 11 47
e 11 50
e 11 60
e 11 62
e 11 70
e 11 73
e 11 77
e 11 87
e 11 91
e 11 94
e 11 96
e 12 17
e 12 18
e 12 19
e 12 20
e 12 21
e 12 23
e 12 26
e 12 28
e 12 29
e 12 37
e 12 38
e 12 39
e 12 44
e 12 46
e 12 49
e 12 50
e 12 53
e 12 56
e 12 57
e 12 66
e 12 84
e 12 90
e 12 91
e 12 98
e 12 99
e 12 100
e 13 17
e 13 18
e 13 19
e 13 20
e 13 21
e 13 24
e 13 30
e 13 32
e 13 33
e 13 36
e 13 38
e 13 43
e 13 46
e 13 51
e 13 53
e 13 55
e 13 56
e 13 58
e 13 64
e 13 71
e 13 82
e 13 84
e 13 88
e 13 97
e 14 17
e 14 18
e 14 19
e 14 20
e 14 21
e 14 22
e 14 23
e 14 24
e 14 26
e 14 27
e 14 29
e 14 30
e 14 31
e 14 33
e 14 34
e 14 35
e 14 41
e 14 42
e 14 43
e 14 44
e 14 48
e 14 51
e 14 54
e 14 60
e 14 64
e 14 66
e 14 68
e 14 73
e 14 75
e 14 76
e 14 82
e 14 89
e 14 94
e 15 17
e 15 18
e 15 21
e 15 23
e 15 25
e 15 28
e 15 29
e 15 31
e 15 50
e 15 52
e 15 59
e 15 74
e 15 88
e 16 17
e 16 18
e 16 19
e 16 20
e 16 21
e 16 22
e 16 25
e 16 26
e 16 31
e 16 36
e 16 42
e 16 43
e 16 44
e 16 63
e 16 70
e 16 77
e 16 81
e 16 83
e 16 84
e 16 88
e 17 18
e 17 19
e 17 20
e 17 21
e 17 22
e 17 23
e 17 24
e 17 25
e 17 26
e 17 27
e 17 29
e 17 30
e 17 32
e 17 33
e 17 35
e 17 36
e 17 39
e 17 40
e 17 42
e 17 45
e 17 46
e 17 47
e 17 52
e 17 53
e 17 55
e 17 56
e 17 61
e 17 65
e 17 69
e 17 71
e 17 73
e 17 75
e 17 76
e 17 77
e 17 80
e 17 85
e 17 91
e 18 19
e 18 20
e 18 21
e 18 22
e 18 23
e 18 24
e 18 25
e 18 26
e 18 27
e 18 28
e 18 29
e 18 30
e 18 31
e 18 32
e 18 33
e 18 34
e 18 35
e 18 37
e 18 39
e 18 44
e 18 45
e 18 47
e 18 48
e 18 49
e 18 51
e 18 53
e 18 54
e 18 57
e 18 58
e 18 61
e 18 63
e 18 64
e 18 66
e 18 69
e 18 71
e 18 74
e 18 78
e 18 80
e 18 89
e 18 90
e 18 93
e 18 94
e 18 99
e 19 20
e 19 21
e 19 22
e 19 23
e 19 24
e 19 25
e 19 26
e 19 27
e 19 28
e 19 29
e 19 31
e 19 32
e 19 33
e 19 34
e 19 35
e 19 36
e 19 37
e 19 38
e 19 40
e 19 41
e 19 43
e 19 45
e 19 46
e 19 47
e 19 50
e 19 51
e 19 52
e 19 54
e 19 56
e 19 57
e 19 58
e 19 59
e 19 61
e 19 62
e 19 64
e 19 66
e 19 67
e 19 69
e 19 72
e 19 74
e 19 77
e 19 78
e 19 79
e 19 80
e 19 83
e 19 85
e 19 86
e 19 92
e 19 98
e 19 100
e 20 21
e 20 22
e 20 23
e 20 24
e 20 25
e 20 26
e 20 27
e 20 28
e 20 30
e 20 31
e 20 32
e 20 33
e 20 34
e 20 35
e 20 36
e 20 37
e 20 38
e 20 39
e 20 41
e 20 42
e 20 44
e 20 46
e 20 49
e 20 50
e 20 51
e 20 52
e 20 54
e 20 55
e 20 56
e 20 57
e 20 58
e 20 59
e 20 62
e 20 65
e 20 69
e 20 71
e 20 72
e 20 73
e 20 74
e 20 77
e 20 80
e 20 82
e 20 84
e 20 85
e 20 89
e 20 94
e 20 97
e 20 99
e 21 22
e 21 23
e 21 24
e 21 25
e 21 26
e 21 27
e 21 28
e 21 30
e 21 32
e 21 33
e 21 34
e 21 35
e 21 36
e 21 37
e 21 38
e 21 40
e 21 41
e 21 42
e 21 43
e 21 46
e 21 47
e 21 50
e 21 51
e 21 54
e 21 55
e 21 57
e 21 59
e 21 62
e 21 63
e 21 68
e 21 69
e 21 71
e 21 72
e 21 73
e 21 76
e 21 79
e 21 80
e 21 85
e 21 86
e 21 87
e 21 90
e 21 95
e 21 98
e 22 26
e 22 27
e 22 28
e 22 29
e 22 30
e 22 31
e 22 32
e 22 34
e 22 36
e 22 37
e 22 38
e 22 40
e 22 41
e 22 43
e 22 45
e 22 52
e 22 53
e 22 55
e 22 57
e 22 58
e 22 59
e 22 60
e 22 61
e 22 64
e 22 70
e 22 71
e 22 76
e 22 79
e 22 80
e 22 82
e 22 84
e 22 87
e 22 91
e 22 93
e 22 96
e 22 100
e 23 24
e 23 25
e 23 27
e 23 28
e 23 29
e 23 31
e 23 35
e 23 36
e 23 39
e 23 46
e 23 48
e 23 49
e 23 51
e 23 53
e 23 54
e 23 55
e 23 56
e 23 57
e 23 62
e 23 68
e 23 70
e 23 75
e 23 79
e 23 83
e 23 88
e 23 93
e 23 95
e 24 25
e 24 26
e 24 27
e 24 28
e 24 29
e 24 31
e 24 34
e 24 37
e 24 39
e 24 40
e 24 41
e 24 43
e 24 45
e 24 46
e 24 52
e 24 53
e 24 54
e 24 61
e 24 67
e 24 78
e 24 95
e 24 96
e 25 27
e 25 28
e 25 32
e 25 33
e 25 34
e 25 41
e 25 44
e 25 45
e 25 46
e 25 47
e 25 48
e 25 51
e 25 52
e 25 53
e 25 68
e 25 72
e 25 73
e 25 75
e 25 76
e 25 77
e 25 90
e 25 93
e 25 94
e 25 98
e 25 99
e 26 27
e 26 29
e 26 30
e 26 31
e 26 35
e 26 36
e 26 38
e 26 39
e 26 41
e 26 42
e 26 45
e 26 48
e 26 49
e 26 50
e 26 53
e 26 56
e 26 57
e 26 62
e 26 63
e 26 64
e 26 66
e 26 67
e 26 69
e 26 78
e 26 79
e 26 81
e 26 82
e 26 84
e 26 88
e 26 93
e 26 94
e 26 96
e 26 99
e 27 28
e 27 32
e 27 33
e 27 34
e 27 37
e 27 43
e 27 44
e 27 47
e 27 55
e 27 59
e 27 66
e 27 69
e 27 70
e 27 77
e 27 80
e 27 82
e 27 83
e 27 94
e 28 29
e 28 30
e 28 32
e 28 33
e 28 34
e 28 38
e 28 41
e 28 42
e 28 47
e 28 48
e 28 49
e 28 53
e 28 54
e 28 60
e 28 64
e 28 65
e 28 67
e 28 68
e 28 69
e 28 72
e 28 73
e 28 76
e 28 79
e 28 80
e 28 81
e 28 86
e 28 88
e 28 92
e 28 98
e 29 30
e 29 32
e 29 33
e 29 34
e 29 36
e 29 38
e 29 40
e 29 41
e 29 42
e 29 45
e 29 46
e 29 53
e 29 54
e 29 57
e 29 62
e 29 63
e 29 64
e 29 66
e 29 68
e 29 71
e 29 79
e 29 87
e 29 90
e 29 91
e 29 96
e 30 31
e 30 36
e 30 38
e 30 39
e 30 40
e 30 47
e 30 50
e 30 51
e 30 52
e 30 56
e 30 58
e 30 61
e 30 72
e 30 73
e 30 75
e 30 76
e 30 77
e 30 79
e 30 80
e 30 81
e 30 83
e 30 86
e 30 92
e 30 94
e 30 98
e 31 33
e 31 34
e 31 35
e 31 37
e 31 39
e 31 40
e 31 41
e 31 45
e 31 50
e 31 53
e 31 58
e 31 60
e 31 61
e 31 63
e 31 66
e 31 67
e 31 69
e 31 72
e 31 73
e 31 78
e 31 81
e 31 82
e 31 83
e 31 84
e 31 85
e 31 91
e 31 96
e 32 33
e 32 34
e 32 36
e 32 37
e 32 38
e 32 40
e 32 41
e 32 43
e 32 45
e 32 46
e 32 48
e 32 49
e 32 51
e 32 58
e 32 61
e 32 64
e 32 67
e 32 71
e 32 72
e 32 75
e 32 78
e 32 84
e 32 87
e 32 91
e 32 92
e 32 94
e 32 99
e 33 34
e 33 35
e 33 37
e 33 38
e 33 39
e 33 40
e 33 41
e 33 42
e 33 43
e 33 47
e 33 49
e 33 53
e 33 54
e 33 55
e 33 64
e 33 67
e 33 68
e 33 69
e 33 77
e 33 78
e 33 80
e 33 85
e 33 86
e 33 87
e 33 88
e 33 91
e 33 92
e 33 96
e 33 98
e 33 99
e 34 35
e 34 36
e 34 38
e 34 41
e 34 42
e 34 46
e 34 59
e 34 85
e 35 37
e 35 39
e 35 40
e 35 44
e 35 51
e 35 58
e 35 63
e 35 65
e 35 67
e 35 70
e 35 73
e 35 79
e 35 84
e 35 86
e 35 87
e 35 88
e 35 97
e 36 39
e 36 48
e 36 49
e 36 57
e 36 66
e 36 70
e 36 78
e 36 79
e 36 86
e 36 98
e 37 43
e 37 51
e 37 53
e 37 55
e 37 59
e 37 60
e 37 65
e 37 67
e 37 70
e 37 71
e 37 78
e 37 86
e 37 92
e 37 96
e 37 97
e 37 99
e 38 39
e 38 42
e 38 46
e 38 48
e 38 49
e 38 50
e 38 52
e 38 57
e 38 65
e 38 70
e 38 76
e 38 78
e 38 80
e 38 82
e 38 83
e 38 90
e 38 99
e 39 44
e 39 47
e 39 49
e 39 50
e 39 54
e 39 57
e 39 58
e 39 63
e 39 65
e 39 81
e 39 90
e 39 95
e 40 42
e 40 44
e 40 50
e 40 51
e 40 52
e 40 58
e 40 61
e 40 62
e 40 66
e 40 70
e 40 74
e 40 76
e 40 77
e 40 81
e 40 83
e 40 85
e 40 91
e 40 92
e 40 94
e 41 44
e 41 45
e 41 48
e 41 52
e 41 53
e 41 55
e 41 58
e 41 67
e 41 73
e 41 74
e 41 80
e 41 81
e 41 91
e 41 92
e 41 94
e 41 100
e 42 44
e 42 48
e 42 49
e 42 55
e 42 62
e 42 64
e 42 70
e 42 72
e 42 82
e 42 89
e 42 100
e 43 44
e 43 46
e 43 48
e 43 49
e 43 50
e 43 59
e 43 61
e 43 65
e 43 71
e 43 74
e 43 81
e 43 85
e 43 95
e 43 98
e 43 100
e 44 45
e 44 48
e 44 51
e 44 60
e 44 68
e 44 75
e 44 87
e 44 89
e 44 94
e 44 97
e 45 52
e 45 58
e 45 59
e 45 64
e 45 67
e 45 70
e 45 76
e 45 81
e 45 82
e 45 85
e 45 87
e 45 89
e 46 47
e 46 48
e 46 51
e 46 58
e 46 59
e 46 60
e 46 63
e 46 65
e 46 67
e 46 68
e 46 81
e 46 86
e 46 91
e 46 94
e 47 49
e 47 54
e 47 55
e 47 56
e 47 59
e 47 62
e 47 66
e 47 67
e 47 68
e 47 82
e 47 89
e 48 50
e 48 56
e 48 57
e 48 65
e 48 67
e 48 68
e 48 90
e 49 60
e 49 79
e 50 54
e 50 59
e 50 60
e 50 61
e 50 62
e 50 65
e 50 66
e 50 72
e 50 77
e 50 84
e 51 52
e 51 57
e 51 61
e 51 63
e 51 66
e 51 72
e 51 74
e 51 83
e 51 92
e 51 96
e 51 99
e 52 54
e 52 55
e 52 65
e 52 74
e 52 75
e 52 83
e 53 56
e 53 61
e 53 70
e 53 72
e 53 78
e 53 79
e 53 80
e 53 82
e 53 83
e 53 84
e 53 86
e 53 95
e 54 56
e 54 73
e 54 82
e 54 83
e 54 88
e 54 92
e 55 60
e 55 62
e 55 68
e 55 87
e 55 91
e 56 57
e 56 59
e 56 60
e 56 63
e 56 68
e 56 69
e 56 72
e 56 75
e 56 77
e 56 88
e 56 90
e 56 94
e 56 97
e 56 98
e 56 100
e 57 69
e 57 71
e 57 83
e 57 91
e 57 93
e 57 98
e 58 59
e 58 63
e 58 66
e 58 70
e 58 74
e 58 96
e 58 98
e 58 99
e 59 60
e 59 63
e 59 75
e 59 82
e 60 63
e 60 72
e 60 89
e 60 95
e 61 62
e 61 65
e 61 66
e 61 71
e 61 76
e 61 78
e 61 81
e 61 84
e 61 89
e 61 95
e 61 97
e 62 75
e 62 79
e 63 76
e 63 78
e 63 89
e 63 91
e 63 98
e 63 99
e 64 65
e 64 73
e 64 80
e 64 93
e 64 94
e 64 96
e 64 100
e 65 71
e 65 72
e 65 78
e 65 90
e 66 68
e 66 73
e 66 77
e 66 78
e 66 85
e 66 86
e 66 89
e 66 93
e 66 95
e 67 70
e 67 75
e 67 89
e 67 94
e 67 95
e 68 73
e 68 74
e 68 76
e 68 81
e 68 89
e 68 93
e 68 99
e 68 100
e 70 74
e 70 95
e 71 75
e 71 79
e 72 80
e 72 88
e 72 90
e 72 93
e 72 95
e 72 97
e 73 77
e 73 90
e 74 75
e 74 79
e 75 84
e 75 89
e 76 80
e 76 87
e 76 89
e 76 92
e 77 85
e 77 87
e 77 98
e 78 79
e 78 86
e 78 92
e 78 99
e 79 87
e 79 96
e 80 82
e 80 97
e 80 99
e 81 87
e 81 100
e 82 87
e 83 97
e 83 100
e 84 85
e 84 86
e 84 93
e 84 96
e 84 97
e 85 88
e 85 90
e 85 93
e 86 88
e 86 95
e 87 88
e 87 96
e 87 100
e 88 95
e 89 99
e 90 93
e 90 100
e 91 95
e 95 96
e 95 97
e 97 100
